Cars = 1..200;
Options = 1..5;
Classes = 1..24;
sequenceMinCapacity = [0, 0, 0, 0, 0];
sequenceMaxCapacity = [1, 2, 1, 2, 1];
sequenceSize = [2, 3, 3, 5, 5];
numOrdered = [1, 50, 1, 1, 45, 8, 2, 2, 2, 4, 2, 4, 1, 1, 2, 44, 7, 7, 1, 1, 2, 2, 9, 1];
classHasOption = [| true,  true, false, false,  true
                  |false, false, false,  true, false
                  |false,  true, false, false,  true
                  | true, false, false, false,  true
                  | true, false, false, false, false
                  | true,  true, false, false, false
                  |false, false,  true,  true, false
                  |false, false, false,  true,  true
                  | true, false, false,  true, false
                  |false,  true,  true, false, false
                  |false, false,  true,  true,  true
                  | true,  true,  true, false, false
                  |false,  true,  true,  true,  true
                  |false,  true,  true,  true, false
                  | true, false,  true,  true, false
                  |false,  true, false, false, false
                  |false, false, false, false,  true
                  |false,  true, false,  true, false
                  | true, false,  true, false, false
                  | true,  true,  true, false,  true
                  | true,  true, false,  true, false
                  |false,  true, false,  true,  true
                  |false, false,  true, false, false
                  |false, false,  true, false,  true|];
optionOrdering = [4, 1, 5, 3, 2];
